(declare-const kk -2123013396)
(declare-const o 1724441986)
(declare-const z 2135569492)
(declare-const wb -1049846187)
(declare-const ga 724522060)
(declare-const m -354043107)
(declare-const ul 356911592)
(declare-const g -865156539)
(declare-const a -1952768565)
(declare-const e -1723814156)
(declare-const pc 366143964)
(declare-const p 150078150)
(declare-const ti 2050064378)
(declare-const ev -1483927585)
(declare-const pa -322467975)
(declare-const lu -280502304)
(declare-const pk 211403116)
(declare-const af 1855768428)
(declare-const j 1283194370)
(declare-const h 1414828055)
(declare-const bc 1970380505)
(declare-const vq 816342863)
(declare-const vl 1105587624)
(declare-const c 1730089357)
(declare-const nr 469702792)
(declare-const th 482559570)
(declare-const r 1049119635)
(declare-const q 584352600)
(declare-const fk -1890851621)
(declare-const jh -1972755857)
(declare-const n 263036591)
(declare-const zl -2123085474)
(declare-const ro -1863883306)
(declare-const b -934352083)
(declare-const uo 1467334442)
(declare-const w 1254592796)
(declare-const d 1791770115)
(declare-const bb -501958155)
(declare-const xx -971434467)
(declare-const ea -580906072)
(declare-const yr 963141129)
(declare-const nj -653167414)
(declare-const wt -1796514943)
(declare-const u 17715387)
(declare-const lm 1790977224)
(declare-const mq -575259772)
(declare-const f -456758384)
(declare-const si -537134795)
(declare-const fg 1534289991)
(declare-const rn -1523565566)
(declare-const hc 1154989413)
(declare-const s -2042644752)
(declare-const yv 207493579)
(declare-const om 619400975)
(declare-const ct -1706280262)
(declare-const yj 1894094758)
(declare-const as 2103478351)
(declare-const l -1069861295)
(declare-const t -1444845238)
(declare-const zp 330995816)
(declare-const xr 1856953315)
(declare-const vu 1986387546)
(declare-const uk -154016734)
(declare-const y -1507589887)
(declare-const iu -1368547916)
(declare-const i 1583412534)
(declare-const tt 1077903636)
(declare-const vj -1606355769)
(declare-const k 586404300)
(declare-const mk 171084534)
(declare-const ud 2062700878)
(declare-const sb -966094155)
(declare-const x -1072113590)
(declare-const we -996560130)
(declare-const vw -873891400)
(declare-const gt 1520486580)
(declare-const co -1570147491)
(declare-const hn -930670372)
(declare-const ch -1714704020)
(declare-const kj 1134630011)
(declare-const wk -1956772615)
(declare-const v 1499062340)
(declare-const nb 389493645)
(declare-const fr 1426872359)
(declare-const zb -261866044)
(declare-const zj -2039689865)
(declare-const ek -1289703427)
(declare-const qs 2007619140)
(declare-const hb -1011038190)
(declare-const qj 2064649558)
(declare-const zd 1873548234)
(declare-const rm 1230333617)
(declare-const za 705161948)
(declare-const lj 355245107)
(declare-const wo 832454181)
(declare-const df 55883957)
(declare-const wc 1190139479)
(declare-const sr -1393508427)
(declare-const it -2006407452)
(declare-const gy 1484337229)
(simplify (- yj l))
(simplify (- df xr))
(simplify (* -1918970391 ul))
(simplify (* x jh))
(simplify (* co vl))
(simplify (+ hb -1420819846))
(simplify (+ f zj))
(simplify (- l yj))
(simplify (- e as))
(simplify (- f sr))
(simplify (* af nj))
(simplify (- df yj))
(simplify (- qj kj))
(simplify (- pk pk))
(simplify (+ wk ea))
(simplify (- mq t))
(simplify (+ z e))
(simplify (- pk we))
(simplify (+ iu bc))
(simplify (+ i it))
(simplify (- yr wo))
(simplify (- v bc))
(simplify (* ek tt))
(simplify (- xr fg))
(simplify (+ o lj))
(simplify (- k yj))
(simplify (* wt hc))
(simplify (- zp lm))
(simplify (* we ct))
(simplify (- q lj))
(simplify (+ vl ul))
(simplify (+ lu jh))
(simplify (* o u))
(simplify (- wk iu))
(simplify (- wb l))
(simplify (* l r))
(simplify (+ u hn))
(simplify (* v x))
(simplify (+ uo qs))
(simplify (- jh tt))
(simplify (* zd d))
(simplify (- g sb))
(simplify (- lm f))
(simplify (* sb yj))
(simplify (- f as))
(simplify (- pa lm))
(simplify (* kk om))
(simplify (* jh lm))
(simplify (* gt s))
(simplify (* df nb))